NAME: tsp20_2
COMMENT: 20-tsp problem (Padberg/Rinaldi)
TYPE: TSP
DIMENSION: 20
EDGE_WEIGHT_TYPE : EUC_2D
NODE_COORD_SECTION
1 13 25
2 4 37
3 28 9
4 35 5
5 14 1
6 38 17
7 38 30
8 13 8
9 3 10
10 23 27
11 0 39
12 16 13
13 16 8
14 30 24
15 8 25
16 31 5
17 20 1
18 34 15
19 37 15
20 34 32
